NAME : n60w200.003.455.tour
COMMENT : Length = 455
COMMENT : Found by LKH [Keld Helsgaun] Tue May  2 05:19:06 2017
TYPE : TOUR
DIMENSION : 61
TOUR_SECTION
1
10
56
7
4
2
25
33
41
31
45
55
36
15
51
17
23
9
37
22
30
60
18
12
6
27
20
29
42
47
44
52
53
34
59
40
39
57
43
16
46
58
8
49
48
14
13
21
26
32
5
19
3
24
54
35
50
28
11
61
38
-1
EOF
